NAME : custom
COMMENT : Custom points
TYPE : TSP
DIMENSION : 26
EDGE_WEIGHT_TYPE : EUC_2D
NODE_COORD_SECTION
1 23 38
2 24 55
3 48 73
4 78 64
5 82 33
6 67 24
7 46 20
8 28 14
9 14 26
10 12 48
11 16 67
12 5 84
13 13 96
14 43 89
15 64 89
16 84 93
17 49 53
18 63 42
19 56 36
20 70 12
21 93 15
22 85 7
23 91 49
24 74 50
25 60 64
26 84 74
EOF
